Minimize
 obj: 0 X_0_1
Subject To
 out_0:
  + 1 X_0_1 + 1 X_0_2 + 1 X_0_3 + 1 X_0_4
  = 1
 in_0:
  + 1 X_1_0 + 1 X_2_0 + 1 X_3_0 + 1 X_4_0
  = 1
 out_1:
  + 1 X_1_0 + 1 X_1_2 + 1 X_1_3 + 1 X_1_4
  = 1
 in_1:
  + 1 X_0_1 + 1 X_2_1 + 1 X_3_1 + 1 X_4_1
  = 1
 out_2:
  + 1 X_2_0 + 1 X_2_1 + 1 X_2_3 + 1 X_2_4
  = 1
 in_2:
  + 1 X_0_2 + 1 X_1_2 + 1 X_3_2 + 1 X_4_2
  = 1
 out_3:
  + 1 X_3_0 + 1 X_3_1 + 1 X_3_2 + 1 X_3_4
  = 1
 in_3:
  + 1 X_0_3 + 1 X_1_3 + 1 X_2_3 + 1 X_4_3
  = 1
 out_4:
  + 1 X_4_0 + 1 X_4_1 + 1 X_4_2 + 1 X_4_3
  = 1
 in_4:
  + 1 X_0_4 + 1 X_1_4 + 1 X_2_4 + 1 X_3_4
  = 1
 mtz_1_2:
  + 1 U1 - 1 U2 + 4 X_1_2
  <= 3
 mtz_1_3:
  + 1 U1 - 1 U3 + 4 X_1_3
  <= 3
 mtz_1_4:
  + 1 U1 - 1 U4 + 4 X_1_4
  <= 3
 mtz_2_1:
  + 1 U2 - 1 U1 + 4 X_2_1
  <= 3
 mtz_2_3:
  + 1 U2 - 1 U3 + 4 X_2_3
  <= 3
 mtz_2_4:
  + 1 U2 - 1 U4 + 4 X_2_4
  <= 3
 mtz_3_1:
  + 1 U3 - 1 U1 + 4 X_3_1
  <= 3
 mtz_3_2:
  + 1 U3 - 1 U2 + 4 X_3_2
  <= 3
 mtz_3_4:
  + 1 U3 - 1 U4 + 4 X_3_4
  <= 3
 mtz_4_1:
  + 1 U4 - 1 U1 + 4 X_4_1
  <= 3
 mtz_4_2:
  + 1 U4 - 1 U2 + 4 X_4_2
  <= 3
 mtz_4_3:
  + 1 U4 - 1 U3 + 4 X_4_3
  <= 3
 obj1:
  + 779 X_0_1 + 595 X_0_2 + 481 X_0_3 + 715 X_0_4 + 779 X_1_0 + 385 X_1_2 + 603 X_1_3 + 275 X_1_4
  + 595 X_2_0 + 385 X_2_1 + 694 X_2_3 + 558 X_2_4 + 481 X_3_0 + 603 X_3_1 + 694 X_3_2 + 384 X_3_4
  + 715 X_4_0 + 275 X_4_1 + 558 X_4_2 + 384 X_4_3
  <= 1
 obj2:
  + 701 X_0_1 + 372 X_0_2 + 689 X_0_3 + 360 X_0_4 + 701 X_1_0 + 334 X_1_2 + 107 X_1_3 + 864 X_1_4
  + 372 X_2_0 + 334 X_2_1 + 345 X_2_3 + 604 X_2_4 + 689 X_3_0 + 107 X_3_1 + 345 X_3_2 + 807 X_3_4
  + 360 X_4_0 + 864 X_4_1 + 604 X_4_2 + 807 X_4_3
  <= 2
 obj3:
  + 266 X_0_1 + 765 X_0_2 + 743 X_0_3 + 446 X_0_4 + 266 X_1_0 + 672 X_1_2 + 791 X_1_3 + 395 X_1_4
  + 765 X_2_0 + 672 X_2_1 + 396 X_2_3 + 319 X_2_4 + 743 X_3_0 + 791 X_3_1 + 396 X_3_2 + 414 X_3_4
  + 446 X_4_0 + 395 X_4_1 + 319 X_4_2 + 414 X_4_3
  <= 3
Bounds
 1 <= U1 <= 4
 1 <= U2 <= 4
 1 <= U3 <= 4
 1 <= U4 <= 4
Binary
 X_0_1
 X_0_2
 X_0_3
 X_0_4
 X_1_0
 X_1_2
 X_1_3
 X_1_4
 X_2_0
 X_2_1
 X_2_3
 X_2_4
 X_3_0
 X_3_1
 X_3_2
 X_3_4
 X_4_0
 X_4_1
 X_4_2
 X_4_3
End
